result&benchmarks/Data/Ex1/verify/Output/id_o3_process_dc_iter1Output/Counterexample.2.smt2
(set-info :source |printed by MathSAT|)
(declare-fun |main::local_14@2| () (_ BitVec 32))
(declare-fun |id::x__param__@2| () (_ BitVec 32))
(declare-fun |id::x@2| () (_ BitVec 32))
(declare-fun |id::x__param__@3| () (_ BitVec 32))
(declare-fun |id::__retval__@2| () (_ BitVec 32))
(declare-fun |id::__retval__@3| () (_ BitVec 32))
(declare-fun |id::__retval__@4| () (_ BitVec 32))
(declare-fun |id::__retval__@5| () (_ BitVec 32))
(declare-fun |id::x@3| () (_ BitVec 32))
(declare-fun |id::x__param__@4| () (_ BitVec 32))
(declare-fun |id::x@4| () (_ BitVec 32))
(declare-fun |id::x__param__@5| () (_ BitVec 32))
(declare-fun |id::x@5| () (_ BitVec 32))
(declare-fun |id::uVar1@6| () (_ BitVec 32))
(declare-fun |id::uVar1@8| () (_ BitVec 32))
(declare-fun |id::uVar1@9| () (_ BitVec 32))
(declare-fun |id::uVar1@11| () (_ BitVec 32))
(declare-fun |id::uVar1@12| () (_ BitVec 32))
(declare-fun |id::uVar1@14| () (_ BitVec 32))
(declare-fun |id::uVar1@15| () (_ BitVec 32))
(declare-fun |main::uVar1@7| () (_ BitVec 32))
(assert (let ((.def_14 (= |id::x__param__@2| |id::x@2|)))(let ((.def_12 (= |main::local_14@2| |id::x__param__@2|)))(let ((.def_146 (and .def_12 .def_14)))(let ((.def_15 (= |id::x@2| (_ bv0 32))))(let ((.def_19 (not .def_15)))(let ((.def_147 (and .def_19 .def_146)))(let ((.def_24 (bvadd (_ bv4294967295 32) |id::x@2|)))(let ((.def_26 (= .def_24 |id::x__param__@3|)))(let ((.def_148 (and .def_26 .def_147)))(let ((.def_86 (= |id::x__param__@3| |id::x@3|)))(let ((.def_149 (and .def_86 .def_148)))(let ((.def_87 (= |id::x@3| (_ bv0 32))))(let ((.def_89 (not .def_87)))(let ((.def_150 (and .def_89 .def_149)))(let ((.def_93 (bvadd (_ bv4294967295 32) |id::x@3|)))(let ((.def_95 (= .def_93 |id::x__param__@4|)))(let ((.def_151 (and .def_95 .def_150)))(let ((.def_97 (= |id::x__param__@4| |id::x@4|)))(let ((.def_152 (and .def_97 .def_151)))(let ((.def_98 (= |id::x@4| (_ bv0 32))))(let ((.def_100 (not .def_98)))(let ((.def_153 (and .def_100 .def_152)))(let ((.def_104 (bvadd (_ bv4294967295 32) |id::x@4|)))(let ((.def_106 (= .def_104 |id::x__param__@5|)))(let ((.def_154 (and .def_106 .def_153)))(let ((.def_108 (= |id::x__param__@5| |id::x@5|)))(let ((.def_155 (and .def_108 .def_154)))(let ((.def_109 (= |id::x@5| (_ bv0 32))))(let ((.def_156 (and .def_109 .def_155)))(let ((.def_113 (= |id::uVar1@6| (_ bv0 32))))(let ((.def_157 (and .def_113 .def_156)))(let ((.def_115 (= |id::__retval__@2| |id::uVar1@6|)))(let ((.def_158 (and .def_115 .def_157)))(let ((.def_118 (= |id::__retval__@2| |id::uVar1@8|)))(let ((.def_159 (and .def_118 .def_158)))(let ((.def_120 (bvadd (_ bv1 32) |id::uVar1@8|)))(let ((.def_122 (= .def_120 |id::uVar1@9|)))(let ((.def_160 (and .def_122 .def_159)))(let ((.def_123 (= |id::__retval__@3| |id::uVar1@9|)))(let ((.def_161 (and .def_123 .def_160)))(let ((.def_126 (= |id::__retval__@3| |id::uVar1@11|)))(let ((.def_162 (and .def_126 .def_161)))(let ((.def_128 (bvadd (_ bv1 32) |id::uVar1@11|)))(let ((.def_130 (= .def_128 |id::uVar1@12|)))(let ((.def_163 (and .def_130 .def_162)))(let ((.def_131 (= |id::__retval__@4| |id::uVar1@12|)))(let ((.def_164 (and .def_131 .def_163)))(let ((.def_134 (= |id::__retval__@4| |id::uVar1@14|)))(let ((.def_165 (and .def_134 .def_164)))(let ((.def_136 (bvadd (_ bv1 32) |id::uVar1@14|)))(let ((.def_138 (= .def_136 |id::uVar1@15|)))(let ((.def_166 (and .def_138 .def_165)))(let ((.def_139 (= |id::__retval__@5| |id::uVar1@15|)))(let ((.def_167 (and .def_139 .def_166)))(let ((.def_142 (= |id::__retval__@5| |main::uVar1@7|)))(let ((.def_168 (and .def_142 .def_167)))(let ((.def_143 (= |main::uVar1@7| (_ bv3 32))))(let ((.def_169 (and .def_143 .def_168))).def_169)))))))))))))))))))))))))))))))))))))))))))))))))))))))))))