result&benchmarks/Data/Ex1/verify/Output/id_o3_process_dc_iter1Output/Counterexample.2.txt
none:	N49 -{INIT GLOBAL VARS}-> N70
/usr/include/assert.h, lines 69-71:	N70 -{void __assert_fail(const char *__assertion, const char *__file, unsigned int __line, const char *__function);}-> N71
/usr/include/assert.h, lines 74-76:	N71 -{void __assert_perror_fail(int __errnum, const char *__file, unsigned int __line, const char *__function);}-> N72
/usr/include/assert.h, lines 81-82:	N72 -{void __assert(const char *__assertion, const char *__file, int __line);}-> N73
/usr/include/x86_64-linux-gnu/bits/types.h, line 31:	N73 -{typedef unsigned char __u_char;}-> N74
/usr/include/x86_64-linux-gnu/bits/types.h, line 32:	N74 -{typedef unsigned short int __u_short;}-> N75
/usr/include/x86_64-linux-gnu/bits/types.h, line 33:	N75 -{typedef unsigned int __u_int;}-> N76
/usr/include/x86_64-linux-gnu/bits/types.h, line 34:	N76 -{typedef unsigned long int __u_long;}-> N77
/usr/include/x86_64-linux-gnu/bits/types.h, line 37:	N77 -{typedef signed char __int8_t;}-> N78
/usr/include/x86_64-linux-gnu/bits/types.h, line 38:	N78 -{typedef unsigned char __uint8_t;}-> N79
/usr/include/x86_64-linux-gnu/bits/types.h, line 39:	N79 -{typedef signed short int __int16_t;}-> N80
/usr/include/x86_64-linux-gnu/bits/types.h, line 40:	N80 -{typedef unsigned short int __uint16_t;}-> N81
/usr/include/x86_64-linux-gnu/bits/types.h, line 41:	N81 -{typedef signed int __int32_t;}-> N82
/usr/include/x86_64-linux-gnu/bits/types.h, line 42:	N82 -{typedef unsigned int __uint32_t;}-> N83
/usr/include/x86_64-linux-gnu/bits/types.h, line 44:	N83 -{typedef signed long int __int64_t;}-> N84
/usr/include/x86_64-linux-gnu/bits/types.h, line 45:	N84 -{typedef unsigned long int __uint64_t;}-> N85
/usr/include/x86_64-linux-gnu/bits/types.h, line 52:	N85 -{typedef __int8_t __int_least8_t;}-> N86
/usr/include/x86_64-linux-gnu/bits/types.h, line 53:	N86 -{typedef __uint8_t __uint_least8_t;}-> N87
/usr/include/x86_64-linux-gnu/bits/types.h, line 54:	N87 -{typedef __int16_t __int_least16_t;}-> N88
/usr/include/x86_64-linux-gnu/bits/types.h, line 55:	N88 -{typedef __uint16_t __uint_least16_t;}-> N89
/usr/include/x86_64-linux-gnu/bits/types.h, line 56:	N89 -{typedef __int32_t __int_least32_t;}-> N90
/usr/include/x86_64-linux-gnu/bits/types.h, line 57:	N90 -{typedef __uint32_t __uint_least32_t;}-> N91
/usr/include/x86_64-linux-gnu/bits/types.h, line 58:	N91 -{typedef __int64_t __int_least64_t;}-> N92
/usr/include/x86_64-linux-gnu/bits/types.h, line 59:	N92 -{typedef __uint64_t __uint_least64_t;}-> N93
/usr/include/x86_64-linux-gnu/bits/types.h, line 63:	N93 -{typedef long int __quad_t;}-> N94
/usr/include/x86_64-linux-gnu/bits/types.h, line 64:	N94 -{typedef unsigned long int __u_quad_t;}-> N95
/usr/include/x86_64-linux-gnu/bits/types.h, line 72:	N95 -{typedef long int __intmax_t;}-> N96
/usr/include/x86_64-linux-gnu/bits/types.h, line 73:	N96 -{typedef unsigned long int __uintmax_t;}-> N97
/usr/include/x86_64-linux-gnu/bits/types.h, line 145:	N97 -{typedef unsigned long int __dev_t;}-> N98
/usr/include/x86_64-linux-gnu/bits/types.h, line 146:	N98 -{typedef unsigned int __uid_t;}-> N99
/usr/include/x86_64-linux-gnu/bits/types.h, line 147:	N99 -{typedef unsigned int __gid_t;}-> N100
/usr/include/x86_64-linux-gnu/bits/types.h, line 148:	N100 -{typedef unsigned long int __ino_t;}-> N101
/usr/include/x86_64-linux-gnu/bits/types.h, line 149:	N101 -{typedef unsigned long int __ino64_t;}-> N102
/usr/include/x86_64-linux-gnu/bits/types.h, line 150:	N102 -{typedef unsigned int __mode_t;}-> N103
/usr/include/x86_64-linux-gnu/bits/types.h, line 151:	N103 -{typedef unsigned long int __nlink_t;}-> N104
/usr/include/x86_64-linux-gnu/bits/types.h, line 152:	N104 -{typedef long int __off_t;}-> N105
/usr/include/x86_64-linux-gnu/bits/types.h, line 153:	N105 -{typedef long int __off64_t;}-> N106
/usr/include/x86_64-linux-gnu/bits/types.h, line 154:	N106 -{typedef int __pid_t;}-> N107
/usr/include/x86_64-linux-gnu/bits/types.h, line 155:	N107 -{struct __anon_type___fsid_t {   int __val[2]; } ;}-> N108
/usr/include/x86_64-linux-gnu/bits/types.h, line 155:	N108 -{typedef struct __anon_type___fsid_t __fsid_t;}-> N109
/usr/include/x86_64-linux-gnu/bits/types.h, line 156:	N109 -{typedef long int __clock_t;}-> N110
/usr/include/x86_64-linux-gnu/bits/types.h, line 157:	N110 -{typedef unsigned long int __rlim_t;}-> N111
/usr/include/x86_64-linux-gnu/bits/types.h, line 158:	N111 -{typedef unsigned long int __rlim64_t;}-> N112
/usr/include/x86_64-linux-gnu/bits/types.h, line 159:	N112 -{typedef unsigned int __id_t;}-> N113
/usr/include/x86_64-linux-gnu/bits/types.h, line 160:	N113 -{typedef long int __time_t;}-> N114
/usr/include/x86_64-linux-gnu/bits/types.h, line 161:	N114 -{typedef unsigned int __useconds_t;}-> N115
/usr/include/x86_64-linux-gnu/bits/types.h, line 162:	N115 -{typedef long int __suseconds_t;}-> N116
/usr/include/x86_64-linux-gnu/bits/types.h, line 163:	N116 -{typedef long int __suseconds64_t;}-> N117
/usr/include/x86_64-linux-gnu/bits/types.h, line 165:	N117 -{typedef int __daddr_t;}-> N118
/usr/include/x86_64-linux-gnu/bits/types.h, line 166:	N118 -{typedef int __key_t;}-> N119
/usr/include/x86_64-linux-gnu/bits/types.h, line 169:	N119 -{typedef int __clockid_t;}-> N120
/usr/include/x86_64-linux-gnu/bits/types.h, line 172:	N120 -{typedef void *__timer_t;}-> N121
/usr/include/x86_64-linux-gnu/bits/types.h, line 175:	N121 -{typedef long int __blksize_t;}-> N122
/usr/include/x86_64-linux-gnu/bits/types.h, line 180:	N122 -{typedef long int __blkcnt_t;}-> N123
/usr/include/x86_64-linux-gnu/bits/types.h, line 181:	N123 -{typedef long int __blkcnt64_t;}-> N124
/usr/include/x86_64-linux-gnu/bits/types.h, line 184:	N124 -{typedef unsigned long int __fsblkcnt_t;}-> N125
/usr/include/x86_64-linux-gnu/bits/types.h, line 185:	N125 -{typedef unsigned long int __fsblkcnt64_t;}-> N126
/usr/include/x86_64-linux-gnu/bits/types.h, line 188:	N126 -{typedef unsigned long int __fsfilcnt_t;}-> N127
/usr/include/x86_64-linux-gnu/bits/types.h, line 189:	N127 -{typedef unsigned long int __fsfilcnt64_t;}-> N128
/usr/include/x86_64-linux-gnu/bits/types.h, line 192:	N128 -{typedef long int __fsword_t;}-> N129
/usr/include/x86_64-linux-gnu/bits/types.h, line 194:	N129 -{typedef long int __ssize_t;}-> N130
/usr/include/x86_64-linux-gnu/bits/types.h, line 197:	N130 -{typedef long int __syscall_slong_t;}-> N131
/usr/include/x86_64-linux-gnu/bits/types.h, line 199:	N131 -{typedef unsigned long int __syscall_ulong_t;}-> N132
/usr/include/x86_64-linux-gnu/bits/types.h, line 203:	N132 -{typedef __off64_t __loff_t;}-> N133
/usr/include/x86_64-linux-gnu/bits/types.h, line 204:	N133 -{typedef char *__caddr_t;}-> N134
/usr/include/x86_64-linux-gnu/bits/types.h, line 207:	N134 -{typedef long int __intptr_t;}-> N135
/usr/include/x86_64-linux-gnu/bits/types.h, line 210:	N135 -{typedef unsigned int __socklen_t;}-> N136
/usr/include/x86_64-linux-gnu/bits/types.h, line 215:	N136 -{typedef int __sig_atomic_t;}-> N137
/usr/include/x86_64-linux-gnu/bits/stdint-intn.h, line 24:	N137 -{typedef __int8_t int8_t;}-> N138
/usr/include/x86_64-linux-gnu/bits/stdint-intn.h, line 25:	N138 -{typedef __int16_t int16_t;}-> N139
/usr/include/x86_64-linux-gnu/bits/stdint-intn.h, line 26:	N139 -{typedef __int32_t int32_t;}-> N140
/usr/include/x86_64-linux-gnu/bits/stdint-intn.h, line 27:	N140 -{typedef __int64_t int64_t;}-> N141
/usr/include/x86_64-linux-gnu/bits/stdint-uintn.h, line 24:	N141 -{typedef __uint8_t uint8_t;}-> N142
/usr/include/x86_64-linux-gnu/bits/stdint-uintn.h, line 25:	N142 -{typedef __uint16_t uint16_t;}-> N143
/usr/include/x86_64-linux-gnu/bits/stdint-uintn.h, line 26:	N143 -{typedef __uint32_t uint32_t;}-> N144
/usr/include/x86_64-linux-gnu/bits/stdint-uintn.h, line 27:	N144 -{typedef __uint64_t uint64_t;}-> N145
/usr/include/stdint.h, line 43:	N145 -{typedef __int_least8_t int_least8_t;}-> N146
/usr/include/stdint.h, line 44:	N146 -{typedef __int_least16_t int_least16_t;}-> N147
/usr/include/stdint.h, line 45:	N147 -{typedef __int_least32_t int_least32_t;}-> N148
/usr/include/stdint.h, line 46:	N148 -{typedef __int_least64_t int_least64_t;}-> N149
/usr/include/stdint.h, line 49:	N149 -{typedef __uint_least8_t uint_least8_t;}-> N150
/usr/include/stdint.h, line 50:	N150 -{typedef __uint_least16_t uint_least16_t;}-> N151
/usr/include/stdint.h, line 51:	N151 -{typedef __uint_least32_t uint_least32_t;}-> N152
/usr/include/stdint.h, line 52:	N152 -{typedef __uint_least64_t uint_least64_t;}-> N153
/usr/include/stdint.h, line 58:	N153 -{typedef signed char int_fast8_t;}-> N154
/usr/include/stdint.h, line 60:	N154 -{typedef long int int_fast16_t;}-> N155
/usr/include/stdint.h, line 61:	N155 -{typedef long int int_fast32_t;}-> N156
/usr/include/stdint.h, line 62:	N156 -{typedef long int int_fast64_t;}-> N157
/usr/include/stdint.h, line 71:	N157 -{typedef unsigned char uint_fast8_t;}-> N158
/usr/include/stdint.h, line 73:	N158 -{typedef unsigned long int uint_fast16_t;}-> N159
/usr/include/stdint.h, line 74:	N159 -{typedef unsigned long int uint_fast32_t;}-> N160
/usr/include/stdint.h, line 75:	N160 -{typedef unsigned long int uint_fast64_t;}-> N161
/usr/include/stdint.h, line 87:	N161 -{typedef long int intptr_t;}-> N162
/usr/include/stdint.h, line 90:	N162 -{typedef unsigned long int uintptr_t;}-> N163
/usr/include/stdint.h, line 101:	N163 -{typedef __intmax_t intmax_t;}-> N164
/usr/include/stdint.h, line 102:	N164 -{typedef __uintmax_t uintmax_t;}-> N165
/usr/lib/gcc/x86_64-linux-gnu/11/include/stddef.h, line 209:	N165 -{typedef unsigned long int size_t;}-> N166
/usr/lib/gcc/x86_64-linux-gnu/11/include/stddef.h, line 321:	N166 -{typedef int wchar_t;}-> N167
/usr/include/stdlib.h, lines 59-63:	N167 -{struct __anon_type_div_t {   int quot;   int rem; } ;}-> N168
/usr/include/stdlib.h, lines 59-63:	N168 -{typedef struct __anon_type_div_t div_t;}-> N169
/usr/include/stdlib.h, lines 67-71:	N169 -{struct __anon_type_ldiv_t {   long int quot;   long int rem; } ;}-> N170
/usr/include/stdlib.h, lines 67-71:	N170 -{typedef struct __anon_type_ldiv_t ldiv_t;}-> N171
/usr/include/stdlib.h, lines 77-81:	N171 -{struct __anon_type_lldiv_t {   long long int quot;   long long int rem; } ;}-> N172
/usr/include/stdlib.h, lines 77-81:	N172 -{typedef struct __anon_type_lldiv_t lldiv_t;}-> N173
/usr/include/stdlib.h, line 98:	N173 -{size_t __ctype_get_mb_cur_max();}-> N174
/usr/include/stdlib.h, lines 102-103:	N174 -{double atof(const char *__nptr);}-> N175
/usr/include/stdlib.h, lines 105-106:	N175 -{int atoi(const char *__nptr);}-> N176
/usr/include/stdlib.h, lines 108-109:	N176 -{long int atol(const char *__nptr);}-> N177
/usr/include/stdlib.h, lines 113-114:	N177 -{long long int atoll(const char *__nptr);}-> N178
/usr/include/stdlib.h, lines 118-120:	N178 -{double strtod(const char *__nptr, char **__endptr);}-> N179
/usr/include/stdlib.h, lines 124-125:	N179 -{float strtof(const char *__nptr, char **__endptr);}-> N180
/usr/include/stdlib.h, lines 127-129:	N180 -{long double strtold(const char *__nptr, char **__endptr);}-> N181
/usr/include/stdlib.h, lines 177-179:	N181 -{long int strtol(const char *__nptr, char **__endptr, int __base);}-> N182
/usr/include/stdlib.h, lines 181-183:	N182 -{unsigned long int strtoul(const char *__nptr, char **__endptr, int __base);}-> N183
/usr/include/stdlib.h, lines 188-190:	N183 -{long long int strtoq(const char *__nptr, char **__endptr, int __base);}-> N184
/usr/include/stdlib.h, lines 193-195:	N184 -{unsigned long long int strtouq(const char *__nptr, char **__endptr, int __base);}-> N185
/usr/include/stdlib.h, lines 201-203:	N185 -{long long int strtoll(const char *__nptr, char **__endptr, int __base);}-> N186
/usr/include/stdlib.h, lines 206-208:	N186 -{unsigned long long int strtoull(const char *__nptr, char **__endptr, int __base);}-> N187
/usr/include/stdlib.h, line 386:	N187 -{char *l64a(long int __n);}-> N188
/usr/include/stdlib.h, lines 389-390:	N188 -{long int a64l(const char *__s);}-> N189
/usr/include/x86_64-linux-gnu/sys/types.h, line 33:	N189 -{typedef __u_char u_char;}-> N190
/usr/include/x86_64-linux-gnu/sys/types.h, line 34:	N190 -{typedef __u_short u_short;}-> N191
/usr/include/x86_64-linux-gnu/sys/types.h, line 35:	N191 -{typedef __u_int u_int;}-> N192
/usr/include/x86_64-linux-gnu/sys/types.h, line 36:	N192 -{typedef __u_long u_long;}-> N193
/usr/include/x86_64-linux-gnu/sys/types.h, line 37:	N193 -{typedef __quad_t quad_t;}-> N194
/usr/include/x86_64-linux-gnu/sys/types.h, line 38:	N194 -{typedef __u_quad_t u_quad_t;}-> N195
/usr/include/x86_64-linux-gnu/sys/types.h, line 39:	N195 -{typedef __fsid_t fsid_t;}-> N196
/usr/include/x86_64-linux-gnu/sys/types.h, line 42:	N196 -{typedef __loff_t loff_t;}-> N197
/usr/include/x86_64-linux-gnu/sys/types.h, line 47:	N197 -{typedef __ino_t ino_t;}-> N198
/usr/include/x86_64-linux-gnu/sys/types.h, line 59:	N198 -{typedef __dev_t dev_t;}-> N199
/usr/include/x86_64-linux-gnu/sys/types.h, line 64:	N199 -{typedef __gid_t gid_t;}-> N200
/usr/include/x86_64-linux-gnu/sys/types.h, line 69:	N200 -{typedef __mode_t mode_t;}-> N201
/usr/include/x86_64-linux-gnu/sys/types.h, line 74:	N201 -{typedef __nlink_t nlink_t;}-> N202
/usr/include/x86_64-linux-gnu/sys/types.h, line 79:	N202 -{typedef __uid_t uid_t;}-> N203
/usr/include/x86_64-linux-gnu/sys/types.h, line 85:	N203 -{typedef __off_t off_t;}-> N204
/usr/include/x86_64-linux-gnu/sys/types.h, line 97:	N204 -{typedef __pid_t pid_t;}-> N205
/usr/include/x86_64-linux-gnu/sys/types.h, line 103:	N205 -{typedef __id_t id_t;}-> N206
/usr/include/x86_64-linux-gnu/sys/types.h, line 108:	N206 -{typedef __ssize_t ssize_t;}-> N207
/usr/include/x86_64-linux-gnu/sys/types.h, line 114:	N207 -{typedef __daddr_t daddr_t;}-> N208
/usr/include/x86_64-linux-gnu/sys/types.h, line 115:	N208 -{typedef __caddr_t caddr_t;}-> N209
/usr/include/x86_64-linux-gnu/sys/types.h, line 121:	N209 -{typedef __key_t key_t;}-> N210
/usr/include/x86_64-linux-gnu/bits/types/clock_t.h, line 7:	N210 -{typedef __clock_t clock_t;}-> N211
/usr/include/x86_64-linux-gnu/bits/types/clockid_t.h, line 7:	N211 -{typedef __clockid_t clockid_t;}-> N212
/usr/include/x86_64-linux-gnu/bits/types/time_t.h, line 10:	N212 -{typedef __time_t time_t;}-> N213
/usr/include/x86_64-linux-gnu/bits/types/timer_t.h, line 7:	N213 -{typedef __timer_t timer_t;}-> N214
/usr/include/x86_64-linux-gnu/sys/types.h, line 148:	N214 -{typedef unsigned long int ulong;}-> N215
/usr/include/x86_64-linux-gnu/sys/types.h, line 149:	N215 -{typedef unsigned short int ushort;}-> N216
/usr/include/x86_64-linux-gnu/sys/types.h, line 150:	N216 -{typedef unsigned int uint;}-> N217
/usr/include/x86_64-linux-gnu/sys/types.h, line 158:	N217 -{typedef __uint8_t u_int8_t;}-> N218
/usr/include/x86_64-linux-gnu/sys/types.h, line 159:	N218 -{typedef __uint16_t u_int16_t;}-> N219
/usr/include/x86_64-linux-gnu/sys/types.h, line 160:	N219 -{typedef __uint32_t u_int32_t;}-> N220
/usr/include/x86_64-linux-gnu/sys/types.h, line 161:	N220 -{typedef __uint64_t u_int64_t;}-> N221
/usr/include/x86_64-linux-gnu/sys/types.h, line 164:	N221 -{typedef signed int register_t;}-> N222
/usr/include/x86_64-linux-gnu/bits/byteswap.h, lines 33-41:	N222 -{__uint16_t __bswap_16(__uint16_t __bsx);}-> N223
/usr/include/x86_64-linux-gnu/bits/byteswap.h, lines 48-56:	N223 -{__uint32_t __bswap_32(__uint32_t __bsx);}-> N224
/usr/include/x86_64-linux-gnu/bits/byteswap.h, lines 69-77:	N224 -{__uint64_t __bswap_64(__uint64_t __bsx);}-> N225
/usr/include/x86_64-linux-gnu/bits/uintn-identity.h, lines 32-36:	N225 -{__uint16_t __uint16_identity(__uint16_t __x);}-> N226
/usr/include/x86_64-linux-gnu/bits/uintn-identity.h, lines 38-42:	N226 -{__uint32_t __uint32_identity(__uint32_t __x);}-> N227
/usr/include/x86_64-linux-gnu/bits/uintn-identity.h, lines 44-48:	N227 -{__uint64_t __uint64_identity(__uint64_t __x);}-> N228
/usr/include/x86_64-linux-gnu/bits/types/__sigset_t.h, lines 5-8:	N228 -{struct __anon_type___sigset_t {   unsigned long int __val[32UL]; } ;}-> N229
/usr/include/x86_64-linux-gnu/bits/types/__sigset_t.h, lines 5-8:	N229 -{typedef struct __anon_type___sigset_t __sigset_t;}-> N230
/usr/include/x86_64-linux-gnu/bits/types/sigset_t.h, line 7:	N230 -{typedef __sigset_t sigset_t;}-> N231
/usr/include/x86_64-linux-gnu/bits/types/struct_timeval.h, lines 8-17:	N231 -{struct timeval {   __time_t tv_sec;   __suseconds_t tv_usec; } ;}-> N232
/usr/include/x86_64-linux-gnu/bits/types/struct_timespec.h, lines 11-31:	N232 -{struct timespec {   __time_t tv_sec;   __syscall_slong_t tv_nsec; } ;}-> N233
/usr/include/x86_64-linux-gnu/sys/select.h, line 43:	N233 -{typedef __suseconds_t suseconds_t;}-> N234
/usr/include/x86_64-linux-gnu/sys/select.h, line 49:	N234 -{typedef long int __fd_mask;}-> N235
/usr/include/x86_64-linux-gnu/sys/select.h, lines 59-70:	N235 -{struct __anon_type_fd_set {   __fd_mask __fds_bits[32]; } ;}-> N236
/usr/include/x86_64-linux-gnu/sys/select.h, lines 59-70:	N236 -{typedef struct __anon_type_fd_set fd_set;}-> N237
/usr/include/x86_64-linux-gnu/sys/select.h, line 77:	N237 -{typedef __fd_mask fd_mask;}-> N238
/usr/include/x86_64-linux-gnu/sys/select.h, lines 102-105:	N238 -{int select(int __nfds, fd_set *__readfds, fd_set *__writefds, fd_set *__exceptfds, struct timeval *__timeout);}-> N239
/usr/include/x86_64-linux-gnu/sys/select.h, lines 127-131:	N239 -{int pselect(int __nfds, fd_set *__readfds, fd_set *__writefds, fd_set *__exceptfds, const struct timespec *__timeout, const __sigset_t *__sigmask);}-> N240
/usr/include/x86_64-linux-gnu/sys/types.h, line 185:	N240 -{typedef __blksize_t blksize_t;}-> N241
/usr/include/x86_64-linux-gnu/sys/types.h, line 192:	N241 -{typedef __blkcnt_t blkcnt_t;}-> N242
/usr/include/x86_64-linux-gnu/sys/types.h, line 196:	N242 -{typedef __fsblkcnt_t fsblkcnt_t;}-> N243
/usr/include/x86_64-linux-gnu/sys/types.h, line 200:	N243 -{typedef __fsfilcnt_t fsfilcnt_t;}-> N244
/usr/include/x86_64-linux-gnu/bits/atomic_wide_counter.h, lines 28-32:	N244 -{struct __anon_type_0 {   unsigned int __low;   unsigned int __high; } ;}-> N245
/usr/include/x86_64-linux-gnu/bits/atomic_wide_counter.h, lines 25-33:	N245 -{union __anon_type___atomic_wide_counter {   unsigned long long int __value64;   struct __anon_type_0 __value32; } ;}-> N246
/usr/include/x86_64-linux-gnu/bits/atomic_wide_counter.h, lines 25-33:	N246 -{typedef union __anon_type___atomic_wide_counter __atomic_wide_counter;}-> N247
/usr/include/x86_64-linux-gnu/bits/thread-shared-types.h, lines 51-55:	N247 -{struct __pthread_internal_list {   struct __pthread_internal_list *__prev;   struct __pthread_internal_list *__next; } ;}-> N248
/usr/include/x86_64-linux-gnu/bits/thread-shared-types.h, lines 51-55:	N248 -{typedef struct __pthread_internal_list __pthread_list_t;}-> N249
/usr/include/x86_64-linux-gnu/bits/thread-shared-types.h, lines 57-60:	N249 -{struct __pthread_internal_slist {   struct __pthread_internal_slist *__next; } ;}-> N250
/usr/include/x86_64-linux-gnu/bits/thread-shared-types.h, lines 57-60:	N250 -{typedef struct __pthread_internal_slist __pthread_slist_t;}-> N251
/usr/include/x86_64-linux-gnu/bits/struct_mutex.h, lines 22-53:	N251 -{struct __pthread_mutex_s {   int __lock;   unsigned int __count;   int __owner;   unsigned int __nusers;   int __kind;   short __spins;   short __elision;   __pthread_list_t __list; } ;}-> N252
/usr/include/x86_64-linux-gnu/bits/struct_rwlock.h, lines 23-55:	N252 -{struct __pthread_rwlock_arch_t {   unsigned int __readers;   unsigned int __writers;   unsigned int __wrphase_futex;   unsigned int __writers_futex;   unsigned int __pad3;   unsigned int __pad4;   int __cur_writer;   int __shared;   signed char __rwelision;   unsigned char __pad1[7];   unsigned long int __pad2;   unsigned int __flags; } ;}-> N253
/usr/include/x86_64-linux-gnu/bits/thread-shared-types.h, lines 94-103:	N253 -{struct __pthread_cond_s {   __atomic_wide_counter __wseq;   __atomic_wide_counter __g1_start;   unsigned int __g_refs[2];   unsigned int __g_size[2];   unsigned int __g1_orig_size;   unsigned int __wrefs;   unsigned int __g_signals[2]; } ;}-> N254
/usr/include/x86_64-linux-gnu/bits/thread-shared-types.h, line 105:	N254 -{typedef unsigned int __tss_t;}-> N255
/usr/include/x86_64-linux-gnu/bits/thread-shared-types.h, line 106:	N255 -{typedef unsigned long int __thrd_t;}-> N256
/usr/include/x86_64-linux-gnu/bits/thread-shared-types.h, lines 108-111:	N256 -{struct __anon_type___once_flag {   int __data; } ;}-> N257
/usr/include/x86_64-linux-gnu/bits/thread-shared-types.h, lines 108-111:	N257 -{typedef struct __anon_type___once_flag __once_flag;}-> N258
/usr/include/x86_64-linux-gnu/bits/pthreadtypes.h, line 27:	N258 -{typedef unsigned long int pthread_t;}-> N259
/usr/include/x86_64-linux-gnu/bits/pthreadtypes.h, lines 32-36:	N259 -{union __anon_type_pthread_mutexattr_t {   char __size[4];   int __align; } ;}-> N260
/usr/include/x86_64-linux-gnu/bits/pthreadtypes.h, lines 32-36:	N260 -{typedef union __anon_type_pthread_mutexattr_t pthread_mutexattr_t;}-> N261
/usr/include/x86_64-linux-gnu/bits/pthreadtypes.h, lines 41-45:	N261 -{union __anon_type_pthread_condattr_t {   char __size[4];   int __align; } ;}-> N262
/usr/include/x86_64-linux-gnu/bits/pthreadtypes.h, lines 41-45:	N262 -{typedef union __anon_type_pthread_mutexattr_t pthread_condattr_t;}-> N263
/usr/include/x86_64-linux-gnu/bits/pthreadtypes.h, line 49:	N263 -{typedef unsigned int pthread_key_t;}-> N264
/usr/include/x86_64-linux-gnu/bits/pthreadtypes.h, line 53:	N264 -{typedef int pthread_once_t;}-> N265
/usr/include/x86_64-linux-gnu/bits/pthreadtypes.h, lines 56-60:	N265 -{union pthread_attr_t {   char __size[56];   long int __align; } ;}-> N266
/usr/include/x86_64-linux-gnu/bits/pthreadtypes.h, line 62:	N266 -{typedef union pthread_attr_t pthread_attr_t;}-> N267
/usr/include/x86_64-linux-gnu/bits/pthreadtypes.h, lines 67-72:	N267 -{union __anon_type_pthread_mutex_t {   struct __pthread_mutex_s __data;   char __size[40];   long int __align; } ;}-> N268
/usr/include/x86_64-linux-gnu/bits/pthreadtypes.h, lines 67-72:	N268 -{typedef union __anon_type_pthread_mutex_t pthread_mutex_t;}-> N269
/usr/include/x86_64-linux-gnu/bits/pthreadtypes.h, lines 75-80:	N269 -{union __anon_type_pthread_cond_t {   struct __pthread_cond_s __data;   char __size[48];   long long int __align; } ;}-> N270
/usr/include/x86_64-linux-gnu/bits/pthreadtypes.h, lines 75-80:	N270 -{typedef union __anon_type_pthread_cond_t pthread_cond_t;}-> N271
/usr/include/x86_64-linux-gnu/bits/pthreadtypes.h, lines 86-91:	N271 -{union __anon_type_pthread_rwlock_t {   struct __pthread_rwlock_arch_t __data;   char __size[56];   long int __align; } ;}-> N272
/usr/include/x86_64-linux-gnu/bits/pthreadtypes.h, lines 86-91:	N272 -{typedef union __anon_type_pthread_rwlock_t pthread_rwlock_t;}-> N273
/usr/include/x86_64-linux-gnu/bits/pthreadtypes.h, lines 93-97:	N273 -{union __anon_type_pthread_rwlockattr_t {   char __size[8];   long int __align; } ;}-> N274
/usr/include/x86_64-linux-gnu/bits/pthreadtypes.h, lines 93-97:	N274 -{typedef union __anon_type_pthread_rwlockattr_t pthread_rwlockattr_t;}-> N275
/usr/include/x86_64-linux-gnu/bits/pthreadtypes.h, line 103:	N275 -{typedef volatile int pthread_spinlock_t;}-> N276
/usr/include/x86_64-linux-gnu/bits/pthreadtypes.h, lines 108-112:	N276 -{union __anon_type_pthread_barrier_t {   char __size[32];   long int __align; } ;}-> N277
/usr/include/x86_64-linux-gnu/bits/pthreadtypes.h, lines 108-112:	N277 -{typedef union __anon_type_pthread_barrier_t pthread_barrier_t;}-> N278
/usr/include/x86_64-linux-gnu/bits/pthreadtypes.h, lines 114-118:	N278 -{union __anon_type_pthread_barrierattr_t {   char __size[4];   int __align; } ;}-> N279
/usr/include/x86_64-linux-gnu/bits/pthreadtypes.h, lines 114-118:	N279 -{typedef union __anon_type_pthread_mutexattr_t pthread_barrierattr_t;}-> N280
/usr/include/stdlib.h, line 402:	N280 -{long int random();}-> N281
/usr/include/stdlib.h, line 405:	N281 -{void srandom(unsigned int __seed);}-> N282
/usr/include/stdlib.h, lines 411-412:	N282 -{char *initstate(unsigned int __seed, char *__statebuf, size_t __statelen);}-> N283
/usr/include/stdlib.h, line 416:	N283 -{char *setstate(char *__statebuf);}-> N284
/usr/include/stdlib.h, lines 424-433:	N284 -{struct random_data {   int32_t *fptr;   int32_t *rptr;   int32_t *state;   int rand_type;   int rand_deg;   int rand_sep;   int32_t *end_ptr; } ;}-> N285
/usr/include/stdlib.h, lines 435-436:	N285 -{int random_r(struct random_data *__buf, int32_t *__result);}-> N286
/usr/include/stdlib.h, lines 438-439:	N286 -{int srandom_r(unsigned int __seed, struct random_data *__buf);}-> N287
/usr/include/stdlib.h, lines 441-444:	N287 -{int initstate_r(unsigned int __seed, char *__statebuf, size_t __statelen, struct random_data *__buf);}-> N288
/usr/include/stdlib.h, lines 446-448:	N288 -{int setstate_r(char *__statebuf, struct random_data *__buf);}-> N289
/usr/include/stdlib.h, line 454:	N289 -{int rand();}-> N290
/usr/include/stdlib.h, line 456:	N290 -{void srand(unsigned int __seed);}-> N291
/usr/include/stdlib.h, line 460:	N291 -{int rand_r(unsigned int *__seed);}-> N292
/usr/include/stdlib.h, line 468:	N292 -{double drand48();}-> N293
/usr/include/stdlib.h, line 469:	N293 -{double erand48(unsigned short int __xsubi[3]);}-> N294
/usr/include/stdlib.h, line 472:	N294 -{long int lrand48();}-> N295
/usr/include/stdlib.h, lines 473-474:	N295 -{long int nrand48(unsigned short int __xsubi[3]);}-> N296
/usr/include/stdlib.h, line 477:	N296 -{long int mrand48();}-> N297
/usr/include/stdlib.h, lines 478-479:	N297 -{long int jrand48(unsigned short int __xsubi[3]);}-> N298
/usr/include/stdlib.h, line 482:	N298 -{void srand48(long int __seedval);}-> N299
/usr/include/stdlib.h, lines 483-484:	N299 -{unsigned short int *seed48(unsigned short int __seed16v[3]);}-> N300
/usr/include/stdlib.h, line 485:	N300 -{void lcong48(unsigned short int __param[7]);}-> N301
/usr/include/stdlib.h, lines 491-499:	N301 -{struct drand48_data {   unsigned short int __x[3];   unsigned short int __old_x[3];   unsigned short int __c;   unsigned short int __init;   unsigned long long int __a; } ;}-> N302
/usr/include/stdlib.h, lines 502-503:	N302 -{int drand48_r(struct drand48_data *__buffer, double *__result);}-> N303
/usr/include/stdlib.h, lines 504-506:	N303 -{int erand48_r(unsigned short int __xsubi[3], struct drand48_data *__buffer, double *__result);}-> N304
/usr/include/stdlib.h, lines 509-511:	N304 -{int lrand48_r(struct drand48_data *__buffer, long int *__result);}-> N305
/usr/include/stdlib.h, lines 512-515:	N305 -{int nrand48_r(unsigned short int __xsubi[3], struct drand48_data *__buffer, long int *__result);}-> N306
/usr/include/stdlib.h, lines 518-520:	N306 -{int mrand48_r(struct drand48_data *__buffer, long int *__result);}-> N307
/usr/include/stdlib.h, lines 521-524:	N307 -{int jrand48_r(unsigned short int __xsubi[3], struct drand48_data *__buffer, long int *__result);}-> N308
/usr/include/stdlib.h, lines 527-528:	N308 -{int srand48_r(long int __seedval, struct drand48_data *__buffer);}-> N309
/usr/include/stdlib.h, lines 530-531:	N309 -{int seed48_r(unsigned short int __seed16v[3], struct drand48_data *__buffer);}-> N310
/usr/include/stdlib.h, lines 533-535:	N310 -{int lcong48_r(unsigned short int __param[7], struct drand48_data *__buffer);}-> N311
/usr/include/stdlib.h, lines 540-541:	N311 -{void *malloc(size_t __size);}-> N312
/usr/include/stdlib.h, lines 543-544:	N312 -{void *calloc(size_t __nmemb, size_t __size);}-> N313
/usr/include/stdlib.h, lines 551-552:	N313 -{void *realloc(void *__ptr, size_t __size);}-> N314
/usr/include/stdlib.h, line 555:	N314 -{void free(void *__ptr);}-> N315
/usr/include/stdlib.h, lines 563-566:	N315 -{void *reallocarray(void *__ptr, size_t __nmemb, size_t __size);}-> N316
/usr/include/alloca.h, line 32:	N316 -{void *alloca(size_t __size);}-> N317
/usr/include/stdlib.h, lines 580-581:	N317 -{void *valloc(size_t __size);}-> N318
/usr/include/stdlib.h, lines 586-587:	N318 -{int posix_memalign(void **__memptr, size_t __alignment, size_t __size);}-> N319
/usr/include/stdlib.h, lines 592-594:	N319 -{void *aligned_alloc(size_t __alignment, size_t __size);}-> N320
/usr/include/stdlib.h, line 598:	N320 -{void abort();}-> N321
/usr/include/stdlib.h, line 602:	N321 -{int atexit(void (*__func)());}-> N322
/usr/include/stdlib.h, line 610:	N322 -{int at_quick_exit(void (*__func)());}-> N323
/usr/include/stdlib.h, lines 617-618:	N323 -{int on_exit(void (*__func)(int __status, void *__arg), void *__arg);}-> N324
/usr/include/stdlib.h, line 624:	N324 -{void exit(int __status);}-> N325
/usr/include/stdlib.h, line 630:	N325 -{void quick_exit(int __status);}-> N326
/usr/include/stdlib.h, line 636:	N326 -{void _Exit(int __status);}-> N327
/usr/include/stdlib.h, line 641:	N327 -{char *getenv(const char *__name);}-> N328
/usr/include/stdlib.h, line 654:	N328 -{int putenv(char *__string);}-> N329
/usr/include/stdlib.h, lines 660-661:	N329 -{int setenv(const char *__name, const char *__value, int __replace);}-> N330
/usr/include/stdlib.h, line 664:	N330 -{int unsetenv(const char *__name);}-> N331
/usr/include/stdlib.h, line 671:	N331 -{int clearenv();}-> N332
/usr/include/stdlib.h, line 682:	N332 -{char *mktemp(char *__template);}-> N333
/usr/include/stdlib.h, line 695:	N333 -{int mkstemp(char *__template);}-> N334
/usr/include/stdlib.h, line 717:	N334 -{int mkstemps(char *__template, int __suffixlen);}-> N335
/usr/include/stdlib.h, line 738:	N335 -{char *mkdtemp(char *__template);}-> N336
/usr/include/stdlib.h, line 791:	N336 -{int system(const char *__command);}-> N337
/usr/include/stdlib.h, lines 808-809:	N337 -{char *realpath(const char *__name, char *__resolved);}-> N338
/usr/include/stdlib.h, line 816:	N338 -{typedef int (*__compar_fn_t)(const void *, const void *);}-> N339
/usr/include/stdlib.h, lines 828-830:	N339 -{void *bsearch(const void *__key, const void *__base, size_t __nmemb, size_t __size, __compar_fn_t __compar);}-> N340
/usr/include/stdlib.h, lines 838-839:	N340 -{void qsort(void *__base, size_t __nmemb, size_t __size, __compar_fn_t __compar);}-> N341
/usr/include/stdlib.h, line 848:	N341 -{int abs(int __x);}-> N342
/usr/include/stdlib.h, line 849:	N342 -{long int labs(long int __x);}-> N343
/usr/include/stdlib.h, lines 852-853:	N343 -{long long int llabs(long long int __x);}-> N344
/usr/include/stdlib.h, lines 860-861:	N344 -{div_t div(int __numer, int __denom);}-> N345
/usr/include/stdlib.h, lines 862-863:	N345 -{ldiv_t ldiv(long int __numer, long int __denom);}-> N346
/usr/include/stdlib.h, lines 866-868:	N346 -{lldiv_t lldiv(long long int __numer, long long int __denom);}-> N347
/usr/include/stdlib.h, lines 880-881:	N347 -{char *ecvt(double __value, int __ndigit, int *__decpt, int *__sign);}-> N348
/usr/include/stdlib.h, lines 886-887:	N348 -{char *fcvt(double __value, int __ndigit, int *__decpt, int *__sign);}-> N349
/usr/include/stdlib.h, lines 892-893:	N349 -{char *gcvt(double __value, int __ndigit, char *__buf);}-> N350
/usr/include/stdlib.h, lines 898-900:	N350 -{char *qecvt(long double __value, int __ndigit, int *__decpt, int *__sign);}-> N351
/usr/include/stdlib.h, lines 901-903:	N351 -{char *qfcvt(long double __value, int __ndigit, int *__decpt, int *__sign);}-> N352
/usr/include/stdlib.h, lines 904-905:	N352 -{char *qgcvt(long double __value, int __ndigit, char *__buf);}-> N353
/usr/include/stdlib.h, lines 910-912:	N353 -{int ecvt_r(double __value, int __ndigit, int *__decpt, int *__sign, char *__buf, size_t __len);}-> N354
/usr/include/stdlib.h, lines 913-915:	N354 -{int fcvt_r(double __value, int __ndigit, int *__decpt, int *__sign, char *__buf, size_t __len);}-> N355
/usr/include/stdlib.h, lines 917-920:	N355 -{int qecvt_r(long double __value, int __ndigit, int *__decpt, int *__sign, char *__buf, size_t __len);}-> N356
/usr/include/stdlib.h, lines 921-924:	N356 -{int qfcvt_r(long double __value, int __ndigit, int *__decpt, int *__sign, char *__buf, size_t __len);}-> N357
/usr/include/stdlib.h, line 930:	N357 -{int mblen(const char *__s, size_t __n);}-> N358
/usr/include/stdlib.h, lines 933-934:	N358 -{int mbtowc(wchar_t *__pwc, const char *__s, size_t __n);}-> N359
/usr/include/stdlib.h, line 937:	N359 -{int wctomb(char *__s, wchar_t __wchar);}-> N360
/usr/include/stdlib.h, lines 941-943:	N360 -{size_t mbstowcs(wchar_t *__pwcs, const char *__s, size_t __n);}-> N361
/usr/include/stdlib.h, lines 945-949:	N361 -{size_t wcstombs(char *__s, const wchar_t *__pwcs, size_t __n);}-> N362
/usr/include/stdlib.h, line 956:	N362 -{int rpmatch(const char *__response);}-> N363
/usr/include/stdlib.h, lines 967-970:	N363 -{int getsubopt(char **__optionp, char * const *__tokens, char **__valuep);}-> N364
/usr/include/stdlib.h, lines 1013-1014:	N364 -{int getloadavg(double __loadavg[], int __nelem);}-> N365
lines 8-10:	N365 -{void assume(int cond);}-> N366
lines 12-24:	N366 -{uint id(uint x);}-> N367
lines 26-37:	N367 -{int main();}-> N368
none:	N368 -{Function start dummy edge}-> N50
line 27:	N50 -{uint uVar1;}-> N51
line 28:	N51 -{uint local_14;}-> N52
	local_14 == 3U;
line 29:	N52 -{uint result;}-> N53
line 30:	N53 -{uint input;}-> N54
line 32:	N54 -{id(local_14)}-> N37
none:	N37 -{Function start dummy edge}-> N38
	x == 3U;
line 13:	N38 -{uint uVar1;}-> N39
	x == 3U;
line 14:	N39 -{uint x_local;}-> N40
line 16:	N40 -{[!(x == 0)]}-> N43
	x == 3U;
	x == 3U;
line 20:	N43 -{id(x - 1)}-> N37
none:	N37 -{Function start dummy edge}-> N38
	x == 2U;
line 13:	N38 -{uint uVar1;}-> N39
	x == 2U;
line 14:	N39 -{uint x_local;}-> N40
line 16:	N40 -{[!(x == 0)]}-> N43
	x == 2U;
	x == 2U;
line 20:	N43 -{id(x - 1)}-> N37
none:	N37 -{Function start dummy edge}-> N38
	x == 1U;
line 13:	N38 -{uint uVar1;}-> N39
	x == 1U;
line 14:	N39 -{uint x_local;}-> N40
line 16:	N40 -{[!(x == 0)]}-> N43
	x == 1U;
	x == 1U;
line 20:	N43 -{id(x - 1)}-> N37
none:	N37 -{Function start dummy edge}-> N38
	x == 0U;
line 13:	N38 -{uint uVar1;}-> N39
	x == 0U;
line 14:	N39 -{uint x_local;}-> N40
line 16:	N40 -{[x == 0]}-> N42
	x == 0U;
	x == 0U;
line 17:	N42 -{uVar1 = 0;}-> N44
	uVar1 == 0U;
none:	N44 -{}-> N41
line 23:	N41 -{return uVar1;}-> N36
	uVar1 = 0
line 20:	N36 -{Return edge from id to id: uVar1 = id(x - 1);}-> N45
line 21:	N45 -{uVar1 = uVar1 + 1;}-> N46
	uVar1 == 1U;
none:	N46 -{}-> N41
line 23:	N41 -{return uVar1;}-> N36
	uVar1 = 1
line 20:	N36 -{Return edge from id to id: uVar1 = id(x - 1);}-> N45
line 21:	N45 -{uVar1 = uVar1 + 1;}-> N46
	uVar1 == 2U;
none:	N46 -{}-> N41
line 23:	N41 -{return uVar1;}-> N36
	uVar1 = 2
line 20:	N36 -{Return edge from id to id: uVar1 = id(x - 1);}-> N45
line 21:	N45 -{uVar1 = uVar1 + 1;}-> N46
	uVar1 == 3U;
none:	N46 -{}-> N41
line 23:	N41 -{return uVar1;}-> N36
	uVar1 = 3
line 32:	N36 -{Return edge from id to main: uVar1 = id(local_14);}-> N55
line 33:	N55 -{[uVar1 == 3]}-> N57
	uVar1 == 3U;
	uVar1 == 3U;
line 34:	N57 -{int __CPAchecker_TMP_2;}-> N58
line 34:	N58 -{}-> N60
line 34:	N60 -{__CPAchecker_TMP_2 = 0;}-> N62
line 34:	N62 -{4UL;}-> N63
line 34:	N63 -{}-> N66
line 34:	N66 -{__assert_fail("0 && \"Assertion failed: uVar1 should not equal 3\"", "/home/zyl/biVerify/CPA_DATA2/C/F/llmfix/realOutput/iterationTry/id_o3_process_dc_iter1.c", 34, "__PRETTY_FUNCTION__");}-> N370
